
Log started (V20.1.0.0) Tue Aug  9 12:04:20 2022


Problem 'pp.lp' read.
Read time = 0.00 sec. (0.00 ticks)
Version identifier: 20.1.0.0 | 2020-11-10 | 9bedb6d68
Tried aggregator 1 time.
No LP presolve or aggregator reductions.
Presolve time = 0.02 sec. (0.00 ticks)

Iteration log . . .
Iteration:     1   Scaled dual infeas =             0.000000
Iteration:     2   Dual objective     =           120.000000

Dual simplex - Optimal:  Objective =  1.1700000000e+02
Solution time =    0.02 sec.  Iterations = 3 (1)
Deterministic time = 0.00 ticks  (0.25 ticks/sec)


Variable Name           Solution Value
x3                            9.000000
All other variables matching '*' are 0.

Log started (V20.1.0.0) Tue Aug  9 12:08:34 2022


Problem 'pp.lp' read.
Read time = 0.00 sec. (0.00 ticks)
Version identifier: 20.1.0.0 | 2020-11-10 | 9bedb6d68
Tried aggregator 1 time.
No LP presolve or aggregator reductions.
Presolve time = 0.00 sec. (0.00 ticks)

Iteration log . . .
Iteration:     1   Scaled dual infeas =             0.000000
Iteration:     2   Dual objective     =           120.000000

Dual simplex - Optimal:  Objective =  1.1700000000e+02
Solution time =    0.00 sec.  Iterations = 3 (1)
Deterministic time = 0.00 ticks  (4.07 ticks/sec)


Variable Name           Solution Value
x3                            9.000000
All other variables matching '*' are 0.
